benchmarks/ising_models/2DLattices/SqrLattices/J_unif_-1,1/8x8_square_lattice_unif_frust.wcnf
p wcnf 176 448
w -2 2.645416 0
w 2 0.378012 0
w -3 2.186827 0
w 3 0.457283 0
w -5 1.661110 0
w 5 0.602007 0
w -6 1.846543 0
w 6 0.541552 0
w -8 0.925267 0
w 8 1.080769 0
w -9 0.976396 0
w 9 1.024175 0
w -11 0.717960 0
w 11 1.392835 0
w -12 1.185235 0
w 12 0.843715 0
w -14 0.774931 0
w 14 1.290438 0
w -15 2.437241 0
w 15 0.410300 0
w -17 0.522478 0
w 17 1.913957 0
w -18 1.563014 0
w 18 0.639789 0
w -20 0.384481 0
w 20 2.600912 0
w -21 0.456678 0
w 21 2.189725 0
w -23 0.425796 0
w 23 2.348540 0
w -25 0.999594 0
w 25 1.000406 0
w -26 0.676655 0
w 26 1.477858 0
w -28 0.517695 0
w 28 1.931638 0
w -29 0.431276 0
w 29 2.318700 0
w -31 1.836134 0
w 31 0.544622 0
w -32 2.196679 0
w 32 0.455233 0
w -34 1.481657 0
w 34 0.674920 0
w -35 0.425054 0
w 35 2.352640 0
w -37 2.101704 0
w 37 0.475804 0
w -38 0.725598 0
w 38 1.378173 0
w -40 0.753039 0
w 40 1.327953 0
w -41 0.948057 0
w 41 1.054789 0
w -43 0.936078 0
w 43 1.068287 0
w -44 2.553822 0
w 44 0.391570 0
w -46 0.472888 0
w 46 2.114667 0
w -48 1.308128 0
w 48 0.764451 0
w -49 2.416623 0
w 49 0.413801 0
w -51 0.499289 0
w 51 2.002847 0
w -52 1.223762 0
w 52 0.817152 0
w -54 0.524412 0
w 54 1.906896 0
w -55 0.499113 0
w 55 2.003553 0
w -57 2.322502 0
w 57 0.430570 0
w -58 0.671359 0
w 58 1.489517 0
w -60 0.596527 0
w 60 1.676369 0
w -61 2.154727 0
w 61 0.464096 0
w -63 0.843830 0
w 63 1.185073 0
w -64 0.552043 0
w 64 1.811453 0
w -66 0.831919 0
w 66 1.202040 0
w -67 0.601095 0
w 67 1.663630 0
w -69 1.421036 0
w 69 0.703712 0
w -71 0.782667 0
w 71 1.277682 0
w -72 1.239526 0
w 72 0.806760 0
w -74 0.781410 0
w 74 1.279739 0
w -75 1.457437 0
w 75 0.686136 0
w -77 2.178890 0
w 77 0.458949 0
w -78 1.956683 0
w 78 0.511069 0
w -80 0.373602 0
w 80 2.676647 0
w -81 0.532942 0
w 81 1.876378 0
w -83 0.932565 0
w 83 1.072312 0
w -84 2.408914 0
w 84 0.415125 0
w -86 0.376004 0
w 86 2.659547 0
w -87 1.387534 0
w 87 0.720703 0
w -89 1.460263 0
w 89 0.684808 0
w -90 0.635528 0
w 90 1.573494 0
w -92 0.658071 0
w 92 1.519592 0
w -94 2.083872 0
w 94 0.479876 0
w -95 1.825366 0
w 95 0.547835 0
w -97 1.470159 0
w 97 0.680198 0
w -98 1.103353 0
w 98 0.906329 0
w -100 0.385005 0
w 100 2.597367 0
w -101 0.489527 0
w 101 2.042788 0
w -103 0.579963 0
w 103 1.724247 0
w -104 0.719632 0
w 104 1.389600 0
w -106 0.742127 0
w 106 1.347478 0
w -107 0.551278 0
w 107 1.813966 0
w -109 1.270238 0
w 109 0.787254 0
w -110 0.434880 0
w 110 2.299484 0
w -112 0.397434 0
w 112 2.516141 0
w -113 2.714975 0
w 113 0.368328 0
w -115 1.217076 0
w 115 0.821641 0
w -117 0.564465 0
w 117 1.771590 0
w -118 0.641971 0
w 118 1.557702 0
w -120 0.541836 0
w 120 1.845577 0
w -121 2.317642 0
w 121 0.431473 0
w -123 1.027768 0
w 123 0.972982 0
w -124 0.403756 0
w 124 2.476745 0
w -126 1.348579 0
w 126 0.741521 0
w -127 0.780774 0
w 127 1.280781 0
w -129 1.194834 0
w 129 0.836936 0
w -130 1.408552 0
w 130 0.709949 0
w -132 0.964275 0
w 132 1.037049 0
w -133 1.012347 0
w 133 0.987804 0
w -135 1.826988 0
w 135 0.547349 0
w -136 1.057810 0
w 136 0.945349 0
w -138 0.516292 0
w 138 1.936890 0
w -140 1.555616 0
w 140 0.642832 0
w -141 1.245953 0
w 141 0.802599 0
w -143 0.599519 0
w 143 1.668004 0
w -144 1.023623 0
w 144 0.976922 0
w -146 0.766585 0
w 146 1.304486 0
w -147 0.450600 0
w 147 2.219263 0
w -149 1.301184 0
w 149 0.768531 0
w -150 1.073596 0
w 150 0.931449 0
w -152 0.750334 0
w 152 1.332739 0
w -153 0.885326 0
w 153 1.129528 0
w -155 2.101690 0
w 155 0.475808 0
w -156 2.708979 0
w 156 0.369143 0
w -158 0.708127 0
w 158 1.412177 0
w -159 2.452404 0
w 159 0.407763 0
w -161 0.380790 0
w 161 2.626117 0
w -163 1.047448 0
w 163 0.954702 0
w -165 2.472571 0
w 165 0.404437 0
w -167 2.164518 0
w 167 0.461997 0
w -169 1.473613 0
w 169 0.678604 0
w -171 0.464859 0
w 171 2.151191 0
w -173 1.080199 0
w 173 0.925756 0
w -175 2.183402 0
w 175 0.458001 0
2 1 4 0
2 -1 -4 0
-2 1 -4 0
-2 -1 4 0
3 1 24 0
3 -1 -24 0
-3 1 -24 0
-3 -1 24 0
5 4 7 0
5 -4 -7 0
-5 4 -7 0
-5 -4 7 0
6 4 27 0
6 -4 -27 0
-6 4 -27 0
-6 -4 27 0
8 7 10 0
8 -7 -10 0
-8 7 -10 0
-8 -7 10 0
9 7 30 0
9 -7 -30 0
-9 7 -30 0
-9 -7 30 0
11 10 13 0
11 -10 -13 0
-11 10 -13 0
-11 -10 13 0
12 10 33 0
12 -10 -33 0
-12 10 -33 0
-12 -10 33 0
14 13 16 0
14 -13 -16 0
-14 13 -16 0
-14 -13 16 0
15 13 36 0
15 -13 -36 0
-15 13 -36 0
-15 -13 36 0
17 16 19 0
17 -16 -19 0
-17 16 -19 0
-17 -16 19 0
18 16 39 0
18 -16 -39 0
-18 16 -39 0
-18 -16 39 0
20 19 22 0
20 -19 -22 0
-20 19 -22 0
-20 -19 22 0
21 19 42 0
21 -19 -42 0
-21 19 -42 0
-21 -19 42 0
23 22 45 0
23 -22 -45 0
-23 22 -45 0
-23 -22 45 0
25 24 27 0
25 -24 -27 0
-25 24 -27 0
-25 -24 27 0
26 24 47 0
26 -24 -47 0
-26 24 -47 0
-26 -24 47 0
28 27 30 0
28 -27 -30 0
-28 27 -30 0
-28 -27 30 0
29 27 50 0
29 -27 -50 0
-29 27 -50 0
-29 -27 50 0
31 30 33 0
31 -30 -33 0
-31 30 -33 0
-31 -30 33 0
32 30 53 0
32 -30 -53 0
-32 30 -53 0
-32 -30 53 0
34 33 36 0
34 -33 -36 0
-34 33 -36 0
-34 -33 36 0
35 33 56 0
35 -33 -56 0
-35 33 -56 0
-35 -33 56 0
37 36 39 0
37 -36 -39 0
-37 36 -39 0
-37 -36 39 0
38 36 59 0
38 -36 -59 0
-38 36 -59 0
-38 -36 59 0
40 39 42 0
40 -39 -42 0
-40 39 -42 0
-40 -39 42 0
41 39 62 0
41 -39 -62 0
-41 39 -62 0
-41 -39 62 0
43 42 45 0
43 -42 -45 0
-43 42 -45 0
-43 -42 45 0
44 42 65 0
44 -42 -65 0
-44 42 -65 0
-44 -42 65 0
46 45 68 0
46 -45 -68 0
-46 45 -68 0
-46 -45 68 0
48 47 50 0
48 -47 -50 0
-48 47 -50 0
-48 -47 50 0
49 47 70 0
49 -47 -70 0
-49 47 -70 0
-49 -47 70 0
51 50 53 0
51 -50 -53 0
-51 50 -53 0
-51 -50 53 0
52 50 73 0
52 -50 -73 0
-52 50 -73 0
-52 -50 73 0
54 53 56 0
54 -53 -56 0
-54 53 -56 0
-54 -53 56 0
55 53 76 0
55 -53 -76 0
-55 53 -76 0
-55 -53 76 0
57 56 59 0
57 -56 -59 0
-57 56 -59 0
-57 -56 59 0
58 56 79 0
58 -56 -79 0
-58 56 -79 0
-58 -56 79 0
60 59 62 0
60 -59 -62 0
-60 59 -62 0
-60 -59 62 0
61 59 82 0
61 -59 -82 0
-61 59 -82 0
-61 -59 82 0
63 62 65 0
63 -62 -65 0
-63 62 -65 0
-63 -62 65 0
64 62 85 0
64 -62 -85 0
-64 62 -85 0
-64 -62 85 0
66 65 68 0
66 -65 -68 0
-66 65 -68 0
-66 -65 68 0
67 65 88 0
67 -65 -88 0
-67 65 -88 0
-67 -65 88 0
69 68 91 0
69 -68 -91 0
-69 68 -91 0
-69 -68 91 0
71 70 73 0
71 -70 -73 0
-71 70 -73 0
-71 -70 73 0
72 70 93 0
72 -70 -93 0
-72 70 -93 0
-72 -70 93 0
74 73 76 0
74 -73 -76 0
-74 73 -76 0
-74 -73 76 0
75 73 96 0
75 -73 -96 0
-75 73 -96 0
-75 -73 96 0
77 76 79 0
77 -76 -79 0
-77 76 -79 0
-77 -76 79 0
78 76 99 0
78 -76 -99 0
-78 76 -99 0
-78 -76 99 0
80 79 82 0
80 -79 -82 0
-80 79 -82 0
-80 -79 82 0
81 79 102 0
81 -79 -102 0
-81 79 -102 0
-81 -79 102 0
83 82 85 0
83 -82 -85 0
-83 82 -85 0
-83 -82 85 0
84 82 105 0
84 -82 -105 0
-84 82 -105 0
-84 -82 105 0
86 85 88 0
86 -85 -88 0
-86 85 -88 0
-86 -85 88 0
87 85 108 0
87 -85 -108 0
-87 85 -108 0
-87 -85 108 0
89 88 91 0
89 -88 -91 0
-89 88 -91 0
-89 -88 91 0
90 88 111 0
90 -88 -111 0
-90 88 -111 0
-90 -88 111 0
92 91 114 0
92 -91 -114 0
-92 91 -114 0
-92 -91 114 0
94 93 96 0
94 -93 -96 0
-94 93 -96 0
-94 -93 96 0
95 93 116 0
95 -93 -116 0
-95 93 -116 0
-95 -93 116 0
97 96 99 0
97 -96 -99 0
-97 96 -99 0
-97 -96 99 0
98 96 119 0
98 -96 -119 0
-98 96 -119 0
-98 -96 119 0
100 99 102 0
100 -99 -102 0
-100 99 -102 0
-100 -99 102 0
101 99 122 0
101 -99 -122 0
-101 99 -122 0
-101 -99 122 0
103 102 105 0
103 -102 -105 0
-103 102 -105 0
-103 -102 105 0
104 102 125 0
104 -102 -125 0
-104 102 -125 0
-104 -102 125 0
106 105 108 0
106 -105 -108 0
-106 105 -108 0
-106 -105 108 0
107 105 128 0
107 -105 -128 0
-107 105 -128 0
-107 -105 128 0
109 108 111 0
109 -108 -111 0
-109 108 -111 0
-109 -108 111 0
110 108 131 0
110 -108 -131 0
-110 108 -131 0
-110 -108 131 0
112 111 114 0
112 -111 -114 0
-112 111 -114 0
-112 -111 114 0
113 111 134 0
113 -111 -134 0
-113 111 -134 0
-113 -111 134 0
115 114 137 0
115 -114 -137 0
-115 114 -137 0
-115 -114 137 0
117 116 119 0
117 -116 -119 0
-117 116 -119 0
-117 -116 119 0
118 116 139 0
118 -116 -139 0
-118 116 -139 0
-118 -116 139 0
120 119 122 0
120 -119 -122 0
-120 119 -122 0
-120 -119 122 0
121 119 142 0
121 -119 -142 0
-121 119 -142 0
-121 -119 142 0
123 122 125 0
123 -122 -125 0
-123 122 -125 0
-123 -122 125 0
124 122 145 0
124 -122 -145 0
-124 122 -145 0
-124 -122 145 0
126 125 128 0
126 -125 -128 0
-126 125 -128 0
-126 -125 128 0
127 125 148 0
127 -125 -148 0
-127 125 -148 0
-127 -125 148 0
129 128 131 0
129 -128 -131 0
-129 128 -131 0
-129 -128 131 0
130 128 151 0
130 -128 -151 0
-130 128 -151 0
-130 -128 151 0
132 131 134 0
132 -131 -134 0
-132 131 -134 0
-132 -131 134 0
133 131 154 0
133 -131 -154 0
-133 131 -154 0
-133 -131 154 0
135 134 137 0
135 -134 -137 0
-135 134 -137 0
-135 -134 137 0
136 134 157 0
136 -134 -157 0
-136 134 -157 0
-136 -134 157 0
138 137 160 0
138 -137 -160 0
-138 137 -160 0
-138 -137 160 0
140 139 142 0
140 -139 -142 0
-140 139 -142 0
-140 -139 142 0
141 139 162 0
141 -139 -162 0
-141 139 -162 0
-141 -139 162 0
143 142 145 0
143 -142 -145 0
-143 142 -145 0
-143 -142 145 0
144 142 164 0
144 -142 -164 0
-144 142 -164 0
-144 -142 164 0
146 145 148 0
146 -145 -148 0
-146 145 -148 0
-146 -145 148 0
147 145 166 0
147 -145 -166 0
-147 145 -166 0
-147 -145 166 0
149 148 151 0
149 -148 -151 0
-149 148 -151 0
-149 -148 151 0
150 148 168 0
150 -148 -168 0
-150 148 -168 0
-150 -148 168 0
152 151 154 0
152 -151 -154 0
-152 151 -154 0
-152 -151 154 0
153 151 170 0
153 -151 -170 0
-153 151 -170 0
-153 -151 170 0
155 154 157 0
155 -154 -157 0
-155 154 -157 0
-155 -154 157 0
156 154 172 0
156 -154 -172 0
-156 154 -172 0
-156 -154 172 0
158 157 160 0
158 -157 -160 0
-158 157 -160 0
-158 -157 160 0
159 157 174 0
159 -157 -174 0
-159 157 -174 0
-159 -157 174 0
161 160 176 0
161 -160 -176 0
-161 160 -176 0
-161 -160 176 0
163 162 164 0
163 -162 -164 0
-163 162 -164 0
-163 -162 164 0
165 164 166 0
165 -164 -166 0
-165 164 -166 0
-165 -164 166 0
167 166 168 0
167 -166 -168 0
-167 166 -168 0
-167 -166 168 0
169 168 170 0
169 -168 -170 0
-169 168 -170 0
-169 -168 170 0
171 170 172 0
171 -170 -172 0
-171 170 -172 0
-171 -170 172 0
173 172 174 0
173 -172 -174 0
-173 172 -174 0
-173 -172 174 0
175 174 176 0
175 -174 -176 0
-175 174 -176 0
-175 -174 176 0
