benchmarks/ising_models/2DLattices/SqrLattices/J_unif_-1,1/8x8_square_lattice_unif_frust
ISING
64
2 2 2 2 2 2 2 2 2 2 2 2 2 2 2 2 2 2 2 2 2 2 2 2 2 2 2 2 2 2 2 2 2 2 2 2 2 2 2 2 2 2 2 2 2 2 2 2 2 2 2 2 2 2 2 2 2 2 2 2 2 2 2 2
0 112 1.0 1
2 0 1
2 0 8
2 1 2
2 1 9
2 2 3
2 2 10
2 3 4
2 3 11
2 4 5
2 4 12
2 5 6
2 5 13
2 6 7
2 6 14
2 7 15
2 8 9
2 8 16
2 9 10
2 9 17
2 10 11
2 10 18
2 11 12
2 11 19
2 12 13
2 12 20
2 13 14
2 13 21
2 14 15
2 14 22
2 15 23
2 16 17
2 16 24
2 17 18
2 17 25
2 18 19
2 18 26
2 19 20
2 19 27
2 20 21
2 20 28
2 21 22
2 21 29
2 22 23
2 22 30
2 23 31
2 24 25
2 24 32
2 25 26
2 25 33
2 26 27
2 26 34
2 27 28
2 27 35
2 28 29
2 28 36
2 29 30
2 29 37
2 30 31
2 30 38
2 31 39
2 32 33
2 32 40
2 33 34
2 33 41
2 34 35
2 34 42
2 35 36
2 35 43
2 36 37
2 36 44
2 37 38
2 37 45
2 38 39
2 38 46
2 39 47
2 40 41
2 40 48
2 41 42
2 41 49
2 42 43
2 42 50
2 43 44
2 43 51
2 44 45
2 44 52
2 45 46
2 45 53
2 46 47
2 46 54
2 47 55
2 48 49
2 48 56
2 49 50
2 49 57
2 50 51
2 50 58
2 51 52
2 51 59
2 52 53
2 52 60
2 53 54
2 53 61
2 54 55
2 54 62
2 55 63
2 56 57
2 57 58
2 58 59
2 59 60
2 60 61
2 61 62
2 62 63

4
 -0.9728284900081214 0.9728284900081214
 0.9728284900081214 -0.9728284900081214
4
 -0.782451739487007 0.782451739487007
 0.782451739487007 -0.782451739487007
4
 -0.5074862036214352 0.5074862036214352
 0.5074862036214352 -0.5074862036214352
4
 -0.6133152932362682 0.6133152932362682
 0.6133152932362682 -0.6133152932362682
4
 0.07767326432904209 -0.07767326432904209
 -0.07767326432904209 0.07767326432904209
4
 0.02388746638228656 -0.02388746638228656
 -0.02388746638228656 0.02388746638228656
4
 0.33134095094707794 -0.33134095094707794
 -0.33134095094707794 0.33134095094707794
4
 -0.1699409894665156 0.1699409894665156
 0.1699409894665156 -0.1699409894665156
4
 0.254981527824121 -0.254981527824121
 -0.254981527824121 0.254981527824121
4
 -0.8908665896806525 0.8908665896806525
 0.8908665896806525 -0.8908665896806525
4
 0.6491730859302223 -0.6491730859302223
 -0.6491730859302223 0.6491730859302223
4
 -0.44661619123959984 0.44661619123959984
 0.44661619123959984 -0.44661619123959984
4
 0.9558619692695369 -0.9558619692695369
 -0.9558619692695369 0.9558619692695369
4
 0.7837757473227784 -0.7837757473227784
 -0.7837757473227784 0.7837757473227784
4
 0.853793999928181 -0.853793999928181
 -0.853793999928181 0.853793999928181
4
 0.00040615753584338776 -0.00040615753584338776
 -0.00040615753584338776 0.00040615753584338776
4
 0.390593997132455 -0.390593997132455
 -0.390593997132455 0.390593997132455
4
 0.6583685149831087 -0.6583685149831087
 -0.6583685149831087 0.6583685149831087
4
 0.8410067758340802 -0.8410067758340802
 -0.8410067758340802 0.8410067758340802
4
 -0.6076625147944388 0.6076625147944388
 0.6076625147944388 -0.6076625147944388
4
 -0.7869464752742659 0.7869464752742659
 0.7869464752742659 -0.7869464752742659
4
 -0.39316088767972346 0.39316088767972346
 0.39316088767972346 -0.39316088767972346
4
 0.855538151530916 -0.855538151530916
 -0.855538151530916 0.855538151530916
4
 -0.7427482792801672 0.7427482792801672
 0.7427482792801672 -0.7427482792801672
4
 0.32075875272996 -0.32075875272996
 -0.32075875272996 0.32075875272996
4
 0.2836386551484813 -0.2836386551484813
 -0.2836386551484813 0.2836386551484813
4
 0.05334062712312182 -0.05334062712312182
 -0.05334062712312182 0.05334062712312182
4
 0.06605639730764423 -0.06605639730764423
 -0.06605639730764423 0.06605639730764423
4
 -0.9375912314355788 0.9375912314355788
 0.9375912314355788 -0.9375912314355788
4
 0.7488973754834514 -0.7488973754834514
 -0.7488973754834514 0.7488973754834514
4
 -0.26859697732582055 0.26859697732582055
 0.26859697732582055 -0.26859697732582055
4
 -0.8823712120111291 0.8823712120111291
 0.8823712120111291 -0.8823712120111291
4
 0.6945694418763595 -0.6945694418763595
 -0.6945694418763595 0.6945694418763595
4
 -0.2019295457909427 0.2019295457909427
 0.2019295457909427 -0.2019295457909427
4
 0.6454767440436493 -0.6454767440436493
 -0.6454767440436493 0.6454767440436493
4
 0.6949218980387728 -0.6949218980387728
 -0.6949218980387728 0.6949218980387728
4
 -0.8426450436024984 0.8426450436024984
 0.8426450436024984 -0.8426450436024984
4
 0.39845177165924595 -0.39845177165924595
 -0.39845177165924595 0.39845177165924595
4
 0.5166301968113922 -0.5166301968113922
 -0.5166301968113922 0.5166301968113922
4
 -0.767663856688241 0.767663856688241
 0.767663856688241 -0.767663856688241
4
 0.1698047128044402 -0.1698047128044402
 -0.1698047128044402 0.1698047128044402
4
 0.5941293255487594 -0.5941293255487594
 -0.5941293255487594 0.5941293255487594
4
 0.1840204853292564 -0.1840204853292564
 -0.1840204853292564 0.1840204853292564
4
 0.5090017743746482 -0.5090017743746482
 -0.5090017743746482 0.5090017743746482
4
 -0.35138604323813727 0.35138604323813727
 0.35138604323813727 -0.35138604323813727
4
 0.24504782360580757 -0.24504782360580757
 -0.24504782360580757 0.24504782360580757
4
 -0.2147292996654726 0.2147292996654726
 0.2147292996654726 -0.2147292996654726
4
 0.24665591851545488 -0.24665591851545488
 -0.24665591851545488 0.24665591851545488
4
 -0.37667946951781506 0.37667946951781506
 0.37667946951781506 -0.37667946951781506
4
 -0.7788155105127887 0.7788155105127887
 0.7788155105127887 -0.7788155105127887
4
 -0.6712505870570082 0.6712505870570082
 0.6712505870570082 -0.6712505870570082
4
 0.9845650248644544 -0.9845650248644544
 -0.9845650248644544 0.9845650248644544
4
 0.6293434753559219 -0.6293434753559219
 -0.6293434753559219 0.6293434753559219
4
 0.06981675797523867 -0.06981675797523867
 -0.06981675797523867 0.06981675797523867
4
 -0.8791761965356153 0.8791761965356153
 0.8791761965356153 -0.8791761965356153
4
 0.978155930294111 -0.978155930294111
 -0.978155930294111 0.978155930294111
4
 -0.32752825742995517 0.32752825742995517
 0.32752825742995517 -0.32752825742995517
4
 -0.3786166472631358 0.3786166472631358
 0.3786166472631358 -0.3786166472631358
4
 0.4532987785873075 -0.4532987785873075
 -0.4532987785873075 0.4532987785873075
4
 0.41844192471225994 -0.41844192471225994
 -0.41844192471225994 0.41844192471225994
4
 -0.7342277922948681 0.7342277922948681
 0.7342277922948681 -0.7342277922948681
4
 -0.6017806338177791 0.6017806338177791
 0.6017806338177791 -0.6017806338177791
4
 -0.38537085987104325 0.38537085987104325
 0.38537085987104325 -0.38537085987104325
4
 -0.09835340430484352 0.09835340430484352
 0.09835340430484352 -0.09835340430484352
4
 0.9544982448022656 -0.9544982448022656
 -0.9544982448022656 0.9544982448022656
4
 0.7143153162670695 -0.7143153162670695
 -0.7143153162670695 0.7143153162670695
4
 0.5447907159433545 -0.5447907159433545
 -0.5447907159433545 0.5447907159433545
4
 0.3290159937920982 -0.3290159937920982
 -0.3290159937920982 0.3290159937920982
4
 0.2982347689708389 -0.2982347689708389
 -0.2982347689708389 0.2982347689708389
4
 0.5955154689071007 -0.5955154689071007
 -0.5955154689071007 0.5955154689071007
4
 -0.23920427878782347 0.23920427878782347
 0.23920427878782347 -0.23920427878782347
4
 0.832684902846986 -0.832684902846986
 -0.832684902846986 0.832684902846986
4
 0.9227262465207569 -0.9227262465207569
 -0.9227262465207569 0.9227262465207569
4
 -0.9987826490209781 0.9987826490209781
 0.9987826490209781 -0.9987826490209781
4
 -0.1964511592095306 0.1964511592095306
 0.1964511592095306 -0.1964511592095306
4
 0.5718776166983464 -0.5718776166983464
 -0.5718776166983464 0.5718776166983464
4
 0.4432115340495155 -0.4432115340495155
 -0.4432115340495155 0.4432115340495155
4
 0.6127919401490518 -0.6127919401490518
 -0.6127919401490518 0.6127919401490518
4
 -0.8405503069041509 0.8405503069041509
 0.8405503069041509 -0.8405503069041509
4
 -0.027389284288171556 0.027389284288171556
 0.027389284288171556 -0.027389284288171556
4
 0.9069450293913284 -0.9069450293913284
 -0.9069450293913284 0.9069450293913284
4
 -0.29905159141792703 0.29905159141792703
 0.29905159141792703 -0.29905159141792703
4
 0.24746967182614332 -0.24746967182614332
 -0.24746967182614332 0.24746967182614332
4
 -0.1780075369003966 0.1780075369003966
 0.1780075369003966 -0.1780075369003966
4
 -0.34256197526301135 0.34256197526301135
 0.34256197526301135 -0.34256197526301135
4
 0.03637904783761603 -0.03637904783761603
 -0.03637904783761603 0.03637904783761603
4
 -0.01227112889701476 0.01227112889701476
 0.01227112889701476 -0.01227112889701476
4
 -0.6026687864311273 0.6026687864311273
 0.6026687864311273 -0.6026687864311273
4
 -0.05620078993140121 0.05620078993140121
 0.05620078993140121 -0.05620078993140121
4
 0.6610835873285863 -0.6610835873285863
 -0.6610835873285863 0.6610835873285863
4
 -0.4418716403626237 0.4418716403626237
 0.4418716403626237 -0.4418716403626237
4
 -0.21990060488249874 0.21990060488249874
 0.21990060488249874 -0.21990060488249874
4
 0.5116277172416754 -0.5116277172416754
 -0.5116277172416754 0.5116277172416754
4
 -0.02334848794208244 0.02334848794208244
 0.02334848794208244 -0.02334848794208244
4
 0.2658094022447719 -0.2658094022447719
 -0.2658094022447719 0.2658094022447719
4
 0.7971751606069148 -0.7971751606069148
 -0.7971751606069148 0.7971751606069148
4
 -0.26327482907063615 0.26327482907063615
 0.26327482907063615 -0.26327482907063615
4
 -0.07101407198162679 0.07101407198162679
 0.07101407198162679 -0.07101407198162679
4
 0.28723652314129744 -0.28723652314129744
 -0.28723652314129744 0.28723652314129744
4
 0.12179966359037797 -0.12179966359037797
 -0.12179966359037797 0.12179966359037797
4
 -0.7427417194726926 0.7427417194726926
 0.7427417194726926 -0.7427417194726926
4
 -0.9965719726660327 0.9965719726660327
 0.9965719726660327 -0.9965719726660327
4
 0.34513236218132715 -0.34513236218132715
 -0.34513236218132715 0.34513236218132715
4
 -0.8970686071394645 0.8970686071394645
 0.8970686071394645 -0.8970686071394645
4
 0.9655064478538837 -0.9655064478538837
 -0.9655064478538837 0.9655064478538837
4
 -0.04635642919603988 0.04635642919603988
 0.04635642919603988 -0.04635642919603988
4
 -0.9052585728686608 0.9052585728686608
 0.9052585728686608 -0.9052585728686608
4
 -0.7721977732399679 0.7721977732399679
 0.7721977732399679 -0.7721977732399679
4
 -0.3877170812315258 0.3877170812315258
 0.3877170812315258 -0.3877170812315258
4
 0.7660217585300084 -0.7660217585300084
 -0.7660217585300084 0.7660217585300084
4
 -0.07714482328599903 0.07714482328599903
 0.07714482328599903 -0.07714482328599903
4
 -0.7808843888295147 0.7808843888295147
 0.7808843888295147 -0.7808843888295147
